(set-logic ALL)
(declare-fun x_0 () Real)
(declare-fun x_1 () Real)
(declare-fun y_0 () Real)
(declare-fun y_1 () Real)
(declare-fun t_0 () Real)
(declare-fun t_1 () Real)

(assert (= x_0 0))
(assert (= y_0 0))
(assert (= x_1 10))
(assert (= y_1 10))
(assert (>= t_0 0))
(assert (>= t_1 t_0))
(assert (>= (* (- t_0 t_1) (- t_0 t_1)) (+ (* (- x_0 x_1) (- x_0 x_1)) (* (- y_0 y_1) (- y_0 y_1)))))
(check-sat)
